NAME          
ROWS
 N  OBJ
 L  c1
 L  c2
 L  c3
COLUMNS
    MARKER    'MARKER'                 'INTORG'
    x[1]      c1        197
    x[1]      c2        91
    x[1]      c3        910
    x[1]      OBJ       -673
    x[2]      c1        641
    x[2]      c2        220
    x[2]      c3        769
    x[2]      OBJ       -602
    x[3]      c1        34
    x[3]      c2        540
    x[3]      c3        894
    x[3]      OBJ       -567
    x[4]      c1        678
    x[4]      c2        263
    x[4]      c3        781
    x[4]      OBJ       -595
    x[5]      c1        138
    x[5]      c2        195
    x[5]      c3        832
    x[5]      OBJ       -663
    x[6]      c1        755
    x[6]      c2        852
    x[6]      c3        682
    x[6]      OBJ       -304
    x[7]      c1        491
    x[7]      c2        265
    x[7]      c3        334
    x[7]      OBJ       -651
    x[8]      c1        668
    x[8]      c2        951
    x[8]      c3        7
    x[8]      OBJ       -142
    x[9]      c1        888
    x[9]      c2        466
    x[9]      c3        7
    x[9]      OBJ       -125
    x[10]     c1        262
    x[10]     c2        97
    x[10]     c3        142
    x[10]     OBJ       -296
    x[11]     c1        980
    x[11]     c2        359
    x[11]     c3        340
    x[11]     OBJ       -264
    x[12]     c1        155
    x[12]     c2        488
    x[12]     c3        299
    x[12]     OBJ       -935
    x[13]     c1        515
    x[13]     c2        322
    x[13]     c3        901
    x[13]     OBJ       -332
    x[14]     c1        253
    x[14]     c2        405
    x[14]     c3        445
    x[14]     OBJ       -619
    x[15]     c1        357
    x[15]     c2        123
    x[15]     c3        553
    x[15]     OBJ       -129
    x[16]     c1        550
    x[16]     c2        310
    x[16]     c3        119
    x[16]     OBJ       -750
    x[17]     c1        447
    x[17]     c2        505
    x[17]     c3        263
    x[17]     OBJ       -364
    x[18]     c1        940
    x[18]     c2        877
    x[18]     c3        856
    x[18]     OBJ       -571
    x[19]     c1        589
    x[19]     c2        430
    x[19]     c3        372
    x[19]     OBJ       -175
    x[20]     c1        98
    x[20]     c2        712
    x[20]     c3        647
    x[20]     OBJ       -538
RHS
    rhs       c1        4818
    rhs       c2        4236
    rhs       c3        5076
RANGES
BOUNDS
 BV bounds    x[1]
 BV bounds    x[2]
 BV bounds    x[3]
 BV bounds    x[4]
 BV bounds    x[5]
 BV bounds    x[6]
 BV bounds    x[7]
 BV bounds    x[8]
 BV bounds    x[9]
 BV bounds    x[10]
 BV bounds    x[11]
 BV bounds    x[12]
 BV bounds    x[13]
 BV bounds    x[14]
 BV bounds    x[15]
 BV bounds    x[16]
 BV bounds    x[17]
 BV bounds    x[18]
 BV bounds    x[19]
 BV bounds    x[20]
ENDATA
